

******************************************************************************
This program contains Ipopt, a library for large-scale nonlinear optimization.
 Ipopt is released as open source code under the Eclipse Public License (EPL).
         For more information visit http://projects.coin-or.org/Ipopt
******************************************************************************

This is Ipopt version 3.12.8, running with linear solver mumps.
NOTE: Other linear solvers might be more efficient (see Ipopt documentation).

Number of nonzeros in equality constraint Jacobian...:        8
Number of nonzeros in inequality constraint Jacobian.:        0
Number of nonzeros in Lagrangian Hessian.............:       10

Total number of variables............................:        5
                     variables with only lower bounds:        0
                variables with lower and upper bounds:        0
                     variables with only upper bounds:        0
Total number of equality constraints.................:        3
Total number of inequality constraints...............:        0
        inequality constraints with only lower bounds:        0
   inequality constraints with lower and upper bounds:        0
        inequality constraints with only upper bounds:        0

iter    objective    inf_pr   inf_du lg(mu)  ||d||  lg(rg) alpha_du alpha_pr  ls
   0  9.2000000e+01 2.24e+00 5.23e+01  -1.0 0.00e+00    -  0.00e+00 0.00e+00   0
   1  5.0181124e+01 6.59e-01 8.57e+00  -1.0 9.64e-01    -  1.00e+00 1.00e+00f  1
   2  4.1873002e+01 2.18e-02 1.60e+01  -1.0 1.62e-01   2.0 1.00e+00 1.00e+00f  1
   3  3.9764073e+01 1.47e-02 7.09e+00  -1.0 1.32e-01   1.5 1.00e+00 1.00e+00f  1
   4  3.4914622e+01 2.93e+00 1.85e+02  -1.0 2.08e+00   1.0 1.00e+00 1.00e+00f  1
   5  2.7611860e+01 4.31e-01 3.78e+01  -1.0 6.47e-01    -  1.00e+00 1.00e+00f  1
   6  2.4530373e+01 9.24e-02 6.03e+00  -1.0 4.70e-01    -  1.00e+00 1.00e+00f  1
   7  2.4963145e+01 6.20e-03 4.25e-01  -1.0 1.41e-01    -  1.00e+00 1.00e+00h  1
   8  2.4978708e+01 3.29e-05 2.21e-03  -1.7 8.81e-03    -  1.00e+00 1.00e+00h  1
   9  2.4978810e+01 1.14e-09 7.17e-08  -3.8 5.42e-05    -  1.00e+00 1.00e+00h  1
iter    objective    inf_pr   inf_du lg(mu)  ||d||  lg(rg) alpha_du alpha_pr  ls
  10  2.4978810e+01 8.88e-16 4.12e-15  -8.6 1.80e-09    -  1.00e+00 1.00e+00h  1

Number of Iterations....: 10

                                   (scaled)                 (unscaled)
Objective...............:   2.3128527344215719e+01    2.4978809531752976e+01
Dual infeasibility......:   4.1217029789208937e-15    4.4514392172345658e-15
Constraint violation....:   8.8817841970012523e-16    8.8817841970012523e-16
Complementarity.........:   0.0000000000000000e+00    0.0000000000000000e+00
Overall NLP error.......:   4.1217029789208937e-15    4.4514392172345658e-15


Number of objective function evaluations             = 11
Number of objective gradient evaluations             = 11
Number of equality constraint evaluations            = 11
Number of inequality constraint evaluations          = 0
Number of equality constraint Jacobian evaluations   = 11
Number of inequality constraint Jacobian evaluations = 0
Number of Lagrangian Hessian evaluations             = 10
Total CPU secs in IPOPT (w/o function evaluations)   =      0.002
Total CPU secs in NLP function evaluations           =      0.000

EXIT: Optimal Solution Found.
 
Ipopt 3.12.8: Optimal Solution Found
